
-11.3
-11.2
-11.1
-10.9
-10.9
-10.6
-10.4
-10.3
-10.3
-10.2
-10.2
-9.9
-9.6
-9.5
-9.5
-9.5
-9.5
-9.5
-9.4
-9.4
-9.4
-9.4
-9.4
-9.4
-9.4
-9.4
-9.4
-9.4
-9.4
-9.4
-9.4
-9.4
-9.4
-9.4
-9.4
-9.4
-9.4
-9.4
-9.4